data/instances/vrp_files/train_78.vrp
NAME : 78
COMMENT : Generated instance No. 78
TYPE : CVRP
DIMENSION : 21
EDGE_WEIGHT_TYPE : EUC_2D
CAPACITY : 30
NODE_COORD_SECTION
 1 410 209
 2 426 615
 3 81 87
 4 171 518
 5 213 283
 6 400 811
 7 13 649
 8 668 798
 9 932 20
 10 153 886
 11 458 564
 12 663 679
 13 931 996
 14 720 287
 15 879 49
 16 231 897
 17 256 220
 18 138 859
 19 500 674
 20 239 758
 21 760 312
DEMAND_SECTION
1 0
2 8
3 7
4 5
5 7
6 10
7 3
8 5
9 7
10 9
11 2
12 4
13 7
14 1
15 2
16 9
17 10
18 7
19 10
20 7
21 6
DEPOT_SECTION
 1
 -1
EOF